MARKOV
53
2 2 2 2 2 2 2 2 2 2 2 2 2 2 2 2 2 2 2 2 2 2 2 2 2 2 2 2 2 2 2 2 2 2 2 2 2 2 2 2 2 2 2 2 2 2 2 2 2 2 2 2 6

53
3 1 9 10
3 14 20 30
3 1 13 30
3 19 21 22
3 3 13 34
3 5 18 32
3 1 26 29
3 3 17 35
3 2 16 19
3 7 21 34
3 0 15 24
3 20 26 31
3 7 10 12
3 1 6 27
3 8 30 32
3 4 17 26
3 3 16 34
3 0 2 21
3 18 25 27
3 12 14 27
3 21 31 33
3 14 22 33
3 17 25 29
3 5 8 30
3 0 23 25
3 20 27 30
2 3 16
2 5 21
2 9 13
2 23 25
4 9 13 30 36
4 9 13 30 37
4 9 13 30 38
4 9 13 30 39
3 6 10 40
3 6 10 41
4 24 27 35 42
4 24 27 35 43
4 24 27 35 44
4 24 27 35 45
4 2 11 15 46
4 2 11 15 47
4 2 11 15 48
4 2 11 15 49
3 11 28 50
3 11 28 51
4 16 18 19 52
4 9 25 30 52
4 6 26 30 52
4 11 24 31 52
4 11 23 25 52
4 0 19 28 52
1 52

8 0.63224 0.36776 0.353297 0.646703 0.742413 0.257587 0.840588 0.159412
8 0.576409 0.167298 0.116276 0.310937 0.423591 0.832702 0.883724 0.689063
8 0.390339 0.665719 0.194821 0.628276 0.609661 0.334281 0.805179 0.371724
8 0.411634 0.588366 0.926258 0.0737423 0.158123 0.841877 0.497237 0.502763
8 0.436314 0.260226 0.563686 0.739774 0.110057 0.485141 0.889943 0.514859
8 0.476742 0.229767 0.523258 0.770233 0.353671 0.815917 0.646329 0.184083
8 0.470915 0.529085 0.497731 0.502269 0.131077 0.868923 0.620775 0.379225
8 0.299293 0.700707 0.00801031 0.99199 0.583621 0.416379 0.730984 0.269016
8 0.461886 0.538114 0.944448 0.0555523 0.50551 0.49449 0.811865 0.188135
8 0.512827 0.582163 0.487173 0.417837 0.309839 0.773166 0.690161 0.226834
8 0.599028 0.632257 0.400972 0.367743 0.376929 0.807335 0.623071 0.192665
8 0.991881 0.950349 0.00811938 0.0496505 0.497073 0.793888 0.502927 0.206112
8 0.250318 0.485964 0.456248 0.401578 0.749682 0.514036 0.543752 0.598422
8 0.292926 0.707074 0.781215 0.218785 0.676494 0.323506 0.447814 0.552186
8 0.254832 0.745168 0.467421 0.532579 0.317266 0.682734 0.637384 0.362616
8 0.258763 0.801103 0.349313 0.950619 0.741237 0.198897 0.650687 0.0493806
8 0.49961 0.50039 0.15346 0.84654 0.553825 0.446175 0.477821 0.522179
8 0.431754 0.441568 0.568246 0.558432 0.827045 0.205869 0.172955 0.794131
8 0.864651 0.532805 0.135349 0.467195 0.447331 0.244771 0.552669 0.755229
8 0.22636 0.474752 0.648084 0.506765 0.77364 0.525248 0.351916 0.493235
8 0.396263 0.425857 0.603737 0.574143 0.31997 0.791446 0.68003 0.208554
8 0.780896 0.219104 0.535527 0.464473 0.507183 0.492817 0.0367177 0.963282
8 0.187715 0.166381 0.491119 0.481927 0.812285 0.833619 0.508881 0.518073
8 0.67881 0.154564 0.32119 0.845436 0.911461 0.350075 0.0885393 0.649925
8 0.635904 0.598596 0.00142442 0.404114 0.364096 0.401404 0.998576 0.595886
8 0.512101 0.610454 0.590669 0.517552 0.487899 0.389546 0.409331 0.482448
4 0.254328 0.18811 0.745672 0.81189
4 0.533369 0.430522 0.466631 0.569478
4 0.63333 0.511451 0.36667 0.488549
4 0.189792 0.412727 0.810208 0.587273
16 1.0 0.0 0.0 1.0 1.0 1.0 1.0 1.0 1.0 1.0 1.0 1.0 1.0 1.0 1.0 1.0
16 1.0 1.0 1.0 1.0 1.0 0.0 0.0 1.0 1.0 1.0 1.0 1.0 1.0 1.0 1.0 1.0
16 1.0 1.0 1.0 1.0 1.0 1.0 1.0 1.0 1.0 0.0 0.0 1.0 1.0 1.0 1.0 1.0
16 1.0 1.0 1.0 1.0 1.0 1.0 1.0 1.0 1.0 1.0 1.0 1.0 1.0 0.0 0.0 1.0
8 1.0 0.0 1.0 1.0 0.0 1.0 1.0 1.0
8 1.0 1.0 1.0 0.0 1.0 1.0 0.0 1.0
16 1.0 0.0 1.0 1.0 1.0 1.0 1.0 1.0 0.0 1.0 1.0 1.0 1.0 1.0 1.0 1.0
16 1.0 1.0 1.0 0.0 1.0 1.0 1.0 1.0 1.0 1.0 0.0 1.0 1.0 1.0 1.0 1.0
16 1.0 1.0 1.0 1.0 1.0 0.0 1.0 1.0 1.0 1.0 1.0 1.0 0.0 1.0 1.0 1.0
16 1.0 1.0 1.0 1.0 1.0 1.0 1.0 0.0 1.0 1.0 1.0 1.0 1.0 1.0 0.0 1.0
16 1.0 0.0 1.0 1.0 0.0 1.0 1.0 1.0 1.0 1.0 1.0 1.0 1.0 1.0 1.0 1.0
16 1.0 1.0 1.0 0.0 1.0 1.0 0.0 1.0 1.0 1.0 1.0 1.0 1.0 1.0 1.0 1.0
16 1.0 1.0 1.0 1.0 1.0 1.0 1.0 1.0 1.0 0.0 1.0 1.0 0.0 1.0 1.0 1.0
16 1.0 1.0 1.0 1.0 1.0 1.0 1.0 1.0 1.0 1.0 1.0 0.0 1.0 1.0 0.0 1.0
8 1.0 0.0 0.0 1.0 1.0 1.0 1.0 1.0
8 1.0 1.0 1.0 1.0 1.0 0.0 0.0 1.0
48 26.0 1.0 1.0 1.0 1.0 1.0 41.0 1.0 1.0 1.0 1.0 1.0 73.0 1.0 1.0 1.0 1.0 1.0 72.0 1.0 1.0 1.0 1.0 1.0 77.0 1.0 1.0 1.0 1.0 1.0 94.0 1.0 1.0 1.0 1.0 1.0 14.0 1.0 1.0 1.0 1.0 1.0 0.0 1.0 1.0 1.0 1.0 1.0
48 1.0 83.0 1.0 1.0 1.0 1.0 1.0 38.0 1.0 1.0 1.0 1.0 1.0 87.0 1.0 1.0 1.0 1.0 1.0 62.0 1.0 1.0 1.0 1.0 1.0 71.0 1.0 1.0 1.0 1.0 1.0 11.0 1.0 1.0 1.0 1.0 1.0 45.0 1.0 1.0 1.0 1.0 1.0 27.0 1.0 1.0 1.0 1.0
48 1.0 1.0 86.0 1.0 1.0 1.0 1.0 1.0 68.0 1.0 1.0 1.0 1.0 1.0 62.0 1.0 1.0 1.0 1.0 1.0 80.0 1.0 1.0 1.0 1.0 1.0 34.0 1.0 1.0 1.0 1.0 1.0 88.0 1.0 1.0 1.0 1.0 1.0 16.0 1.0 1.0 1.0 1.0 1.0 18.0 1.0 1.0 1.0
48 1.0 1.0 1.0 50.0 1.0 1.0 1.0 1.0 1.0 18.0 1.0 1.0 1.0 1.0 1.0 58.0 1.0 1.0 1.0 1.0 1.0 66.0 1.0 1.0 1.0 1.0 1.0 64.0 1.0 1.0 1.0 1.0 1.0 57.0 1.0 1.0 1.0 1.0 1.0 82.0 1.0 1.0 1.0 1.0 1.0 6.0 1.0 1.0
48 1.0 1.0 1.0 1.0 31.0 1.0 1.0 1.0 1.0 1.0 33.0 1.0 1.0 1.0 1.0 1.0 58.0 1.0 1.0 1.0 1.0 1.0 97.0 1.0 1.0 1.0 1.0 1.0 38.0 1.0 1.0 1.0 1.0 1.0 54.0 1.0 1.0 1.0 1.0 1.0 65.0 1.0 1.0 1.0 1.0 1.0 95.0 1.0
48 1.0 1.0 1.0 1.0 1.0 33.0 1.0 1.0 1.0 1.0 1.0 70.0 1.0 1.0 1.0 1.0 1.0 52.0 1.0 1.0 1.0 1.0 1.0 98.0 1.0 1.0 1.0 1.0 1.0 34.0 1.0 1.0 1.0 1.0 1.0 12.0 1.0 1.0 1.0 1.0 1.0 45.0 1.0 1.0 1.0 1.0 1.0 5.0
6 1.0 1.0 1.0 1.0 1.0 1.0
